








































































































30 74 68 73 76 55 15 5 18 
2 51 52 63 29 60 4 41 
71 59 62 1 17 43 37 
45 35 13 32 40 23 25 3 10 
49 6 14 70 39 56 61 50 9 
0 7 38 8 26 31 24 20 
36 64 75 21 46 34 66 
67 57 33 47 65 16 42 
69 22 58 53 28 27 48 
54 19 12 44 72 11 
